 Code  3032
 Dimension, Fixed Cost
   100        3000
 Facility, Client, Transportation Cost
     1        2           2
     1       23           2
     1       48           1
     1       69           3
     1       75           4
     1       80           4
     1       92           2
     2       34           3
     2       40           4
     2       47           2
     2       56           0
     3        8           0
     3       10           4
     3       11           0
     3       24           2
     3       62           2
     3       71           3
     3       73           3
     3       75           3
     3       84           2
     4        3           0
     4       12           1
     4       13           4
     4       25           0
     4       30           1
     4       57           4
     4       71           3
     4       72           2
     4       73           0
     5        2           0
     5        7           3
     5       13           1
     5       14           4
     5       25           0
     5       31           1
     5       41           1
     5       43           4
     5       74           3
     6        9           2
     6       12           0
     6       13           3
     6       17           4
     6       19           1
     6       21           2
     6       29           4
     6       36           2
     6       38           0
     6       45           4
     6       46           1
     6       53           0
     6       84           4
     6       86           3
     7        3           2
     7       39           4
     7       47           2
     7       61           4
     7       65           2
     7       67           0
     7       88           1
     7       97           1
     8       12           2
     8       35           0
     8       37           2
     8       39           3
     8       44           0
     8       46           0
     8       47           1
     8       49           0
     8       72           2
     8       77           2
     8       80           0
     8       92           1
     9        3           4
     9       12           0
     9       20           4
     9       39           0
     9       56           3
     9       58           2
     9       59           0
     9       66           3
     9       80           0
     9       83           1
     9       91           4
    10       19           3
    10       41           3
    10       42           0
    10       43           0
    10       57           4
    10       62           3
    10       99           1
    11        1           1
    11       18           0
    11       24           2
    11       27           3
    11       63           0
    11       69           3
    11       78           0
    11       80           2
    11       90           0
    12       10           3
    12       33           3
    12       34           4
    12       54           4
    12       62           1
    12       69           0
    12       79           3
    12       82           4
    12       92           4
    13        1           3
    13       13           4
    13       22           0
    13       50           4
    13       82           0
    14        6           2
    14        9           1
    14       15           1
    14       26           1
    14       43           0
    14       45           1
    14       49           1
    14       66           1
    14       89           0
    15        2           2
    15        5           3
    15       10           0
    15       21           4
    15       32           0
    15       35           2
    15       42           0
    15       47           4
    15       75           1
    15       77           4
    15       82           4
    16        6           0
    16        9           2
    16       44           1
    16       47           3
    16       69           4
    16       72           0
    16       78           2
    16       90           2
    16       96           1
    16      100           3
    17       15           1
    17       32           0
    17       38           0
    17       45           4
    17       46           2
    17       61           0
    17       62           1
    17       66           2
    17       87           4
    18       16           0
    18       21           1
    18       24           4
    18       36           2
    18       45           2
    18       47           2
    18       51           4
    18       64           0
    18       65           1
    18       76           3
    18       84           1
    18       85           4
    18       87           3
    18       89           1
    18       90           2
    19        6           0
    19        9           1
    19       23           2
    19       26           4
    19       32           1
    19       38           1
    19       53           4
    19       83           1
    19       84           4
    19       91           4
    20       41           1
    20       69           2
    20       71           2
    20       84           1
    20       87           0
    20       89           1
    20       98           1
    21       12           3
    21       29           2
    21       36           1
    21       52           0
    21       53           0
    21       58           3
    21       59           1
    21       61           1
    21       64           3
    21       81           1
    21       86           2
    21       99           2
    22        1           3
    22        6           1
    22       14           4
    22       20           3
    22       27           2
    22       31           2
    22       36           1
    22       52           3
    22       53           1
    22       73           1
    22       95           4
    22       98           3
    23       20           3
    23       30           2
    23       41           1
    23       80           4
    23       84           2
    23       97           2
    24        3           3
    24       10           2
    24       16           0
    24       26           4
    24       27           2
    24       35           2
    24       42           2
    24       53           0
    24       56           4
    24       60           0
    24       66           2
    24       91           2
    24       97           1
    25        6           3
    25       21           2
    25       24           1
    25       63           4
    25       80           3
    25       87           1
    25       96           4
    26        2           4
    26       15           3
    26       40           3
    26       44           1
    26       51           0
    26       58           2
    26       61           3
    26       62           0
    26       73           4
    26       77           3
    26       79           0
    26       85           0
    27        1           4
    27        2           0
    27        4           1
    27        6           0
    27        7           0
    27       17           0
    27       23           1
    27       24           1
    27       25           0
    27       35           0
    27       39           3
    27       50           0
    27       65           1
    27       82           2
    27       88           1
    27       94           0
    28        1           1
    28        4           0
    28       35           1
    28       64           0
    28       74           2
    28       79           0
    28       86           0
    29        1           4
    29       15           0
    29       16           0
    29       22           4
    29       31           4
    29       40           1
    29       48           1
    29       89           2
    29       90           3
    29       95           1
    30        4           3
    30        9           3
    30       11           4
    30       12           1
    30       18           4
    30       31           3
    30       85           3
    30       91           3
    30       99           0
    30      100           2
    31       22           0
    31       23           1
    31       27           4
    31       41           3
    31       55           2
    31       70           3
    31       81           1
    31       88           3
    32        2           3
    32       22           1
    32       61           1
    32       75           0
    32       77           1
    32       94           0
    33       10           3
    33       17           4
    33       20           2
    33       34           3
    33       75           1
    33       78           0
    34        9           1
    34       14           1
    34       21           3
    34       22           3
    34       23           1
    34       35           1
    34       47           4
    34       49           3
    34       57           4
    34       76           3
    34       88           3
    35        4           0
    35        5           1
    35        8           0
    35       11           3
    35       18           4
    35       30           3
    35       35           1
    35       40           1
    35       45           3
    35       50           3
    35       53           2
    35       59           2
    35       67           0
    35       71           2
    35       74           4
    35       75           0
    35       93           0
    36        5           3
    36       14           2
    36       16           0
    36       33           4
    36       59           3
    36       79           3
    36       86           0
    36       98           2
    37        1           0
    37       18           4
    37       21           0
    37       26           0
    37       36           2
    37       42           4
    37       50           4
    37       64           0
    37       79           1
    37       94           3
    37       99           2
    38       12           0
    38       29           3
    38       30           3
    38       33           1
    38       34           3
    38       41           4
    38       52           3
    38       73           3
    38       84           1
    39        1           1
    39        8           2
    39       11           2
    39       19           0
    39       21           0
    39       33           4
    39       41           3
    39       44           1
    39       49           2
    39       52           0
    39       53           1
    39       55           1
    39       56           3
    39       74           2
    39       76           2
    39       85           2
    39       91           4
    40       13           3
    40       25           1
    40       49           1
    40       60           2
    40       94           4
    41       17           4
    41       23           0
    41       32           3
    41       48           2
    41       51           2
    41       68           4
    41       74           3
    41       77           2
    41       82           1
    42        1           0
    42       11           0
    42       18           2
    42       19           4
    42       33           4
    42       37           0
    42       39           1
    42       73           4
    42       85           1
    42       89           2
    43       15           3
    43       36           1
    43       38           0
    43       40           0
    43       46           3
    43       47           4
    43       50           3
    43       56           4
    43       63           0
    43       73           0
    43       77           0
    43       82           2
    43       95           3
    43       96           0
    43       99           1
    44       16           0
    44       17           4
    44       19           4
    44       21           0
    44       30           3
    44       66           3
    44       71           1
    44       72           2
    44       86           3
    45        8           0
    45       11           0
    45       57           2
    45       60           4
    45       62           3
    45       65           0
    45       80           0
    45       90           2
    46        5           3
    46       21           0
    46       26           1
    46       67           0
    46       85           4
    46       95           4
    47       11           1
    47       13           1
    47       23           3
    47       28           4
    47       31           1
    47       40           4
    47       46           3
    47       55           2
    47       61           2
    47       62           3
    47       63           0
    47       75           3
    47       90           3
    47       93           1
    48       17           4
    48       20           2
    48       29           4
    48       45           1
    48       59           4
    48       64           3
    48       70           1
    48       75           0
    48       81           2
    48       93           3
    49        5           2
    49       16           1
    49       96           0
    49       97           3
    50       26           0
    50       29           2
    50       31           4
    50       39           1
    50       46           1
    50       50           4
    50       51           0
    50       57           0
    50       59           1
    50       68           1
    50       83           4
    50       90           3
    50       93           3
    50       95           0
    51        6           1
    51       25           0
    51       28           2
    51       30           1
    51       31           0
    51       33           1
    51       44           3
    51       49           3
    51       54           2
    51       85           3
    51       98           2
    52        6           3
    52       14           3
    52       20           4
    52       22           4
    52       25           1
    52       29           4
    52       33           0
    52       37           3
    52       38           2
    52       55           1
    52       61           3
    52       80           4
    52       92           1
    52      100           3
    53       10           4
    53       13           1
    53       14           1
    53       20           4
    53       36           0
    53       37           4
    53       42           0
    53       59           0
    53       66           4
    53       78           2
    53       81           0
    53       87           3
    53       95           4
    53       99           3
    54        3           0
    54        7           4
    54        9           3
    54       15           2
    54       18           3
    54       29           2
    54       30           2
    54       40           0
    54       52           1
    54       79           4
    54       82           2
    54       92           1
    54       95           2
    54       98           0
    55        4           0
    55        5           3
    55       15           0
    55       48           0
    55       58           3
    55       65           4
    55       67           2
    55       74           1
    55       98           3
    56       15           3
    56       16           1
    56       39           1
    56       42           1
    56       65           4
    56       75           3
    56       84           1
    57        8           0
    57       52           3
    57       58           4
    57       71           0
    57       80           1
    57       88           4
    58       17           4
    58       51           1
    58       83           0
    58       86           4
    58       89           2
    58       93           3
    58       94           3
    59       13           2
    59       16           4
    59       22           4
    59       33           2
    59       42           4
    59       48           1
    59       52           1
    59       55           0
    59       66           4
    59       74           4
    59       83           0
    59       86           0
    60       39           3
    60       52           1
    60       63           3
    60       81           0
    60       98           2
    61        3           3
    61       18           4
    61       22           4
    61       25           0
    61       28           3
    61       50           3
    61       57           2
    61       59           1
    61       70           1
    61       94           4
    61       99           1
    62        8           2
    62       24           0
    62       32           4
    62       41           0
    62       63           0
    62       64           3
    62       72           3
    62       77           1
    62       78           2
    62       85           1
    62       87           1
    62       89           3
    62       92           4
    62       98           3
    63       17           4
    63       26           2
    63       72           1
    63       93           4
    63       95           1
    64       24           1
    64       38           3
    64       52           1
    64       59           4
    64       63           4
    64       70           3
    64       78           2
    64       82           0
    64       98           2
    64       99           4
    65       14           1
    65       18           0
    65       51           3
    65       54           0
    65       71           0
    65       73           1
    65       76           1
    65       96           3
    65      100           0
    66       19           0
    66       25           3
    66       31           3
    66       41           4
    66       45           1
    66       46           2
    66       57           2
    66       60           4
    66       71           1
    66       72           0
    66       78           0
    66       83           2
    66       88           3
    67       11           0
    67       16           0
    67       27           3
    67       28           1
    67       32           4
    67       42           2
    67       45           1
    67       56           4
    67       67           0
    67       79           0
    67       84           1
    67       85           0
    67       86           1
    67       90           1
    68       35           2
    68       37           0
    68       40           1
    68       41           1
    68       43           0
    68       48           4
    68       54           2
    68       60           2
    68       65           2
    68       92           2
    69        7           3
    69       10           1
    69       11           2
    69       12           1
    69       36           3
    69       51           3
    69       53           1
    69       56           1
    69       60           4
    69       61           1
    69       68           3
    69       72           1
    69       73           3
    69       81           2
    69       89           4
    69       96           3
    70       13           2
    70       27           4
    70       34           3
    70       46           3
    70       47           0
    70       54           0
    70       58           1
    70       68           0
    70       71           1
    70       81           2
    70       91           2
    70       92           4
    70      100           1
    71        7           0
    71       17           2
    71       20           0
    71       23           0
    71       27           3
    71       32           4
    71       33           4
    71       84           2
    71       94           3
    71      100           2
    72        5           1
    72       11           4
    72       26           1
    72       34           4
    72       35           0
    72       37           4
    72       43           0
    72       50           0
    72       52           4
    72       57           0
    72       58           3
    72       62           3
    72       66           4
    72       69           3
    72       79           4
    72       82           1
    72       86           3
    72       96           2
    72      100           1
    73        4           4
    73        9           4
    73       10           1
    73       14           3
    73       24           3
    73       37           1
    73       46           4
    73       48           0
    73       78           2
    73       83           3
    73       89           0
    73       95           1
    73       96           0
    74       24           2
    74       25           2
    74       28           3
    74       29           3
    74       31           3
    74       37           2
    74       40           0
    74       49           1
    74       56           2
    74       76           4
    74       88           2
    75        7           2
    75       19           4
    75       26           4
    75       43           1
    75       55           4
    75       61           4
    75       63           4
    75       87           0
    75       94           0
    76       25           0
    76       50           3
    76       65           2
    76       67           3
    76       70           3
    76       93           3
    76       97           3
    77       27           1
    77       28           3
    77       31           2
    77       37           3
    77       42           3
    77       43           4
    77       45           0
    77       78           1
    77       80           1
    77       81           1
    77       99           0
    78        8           3
    78       22           2
    78       38           3
    78       48           1
    78       49           4
    78       67           2
    78       68           1
    78       91           2
    78       99           3
    79        2           2
    79       10           4
    79       32           3
    79       38           1
    79       54           0
    79       64           2
    79       67           1
    79       68           4
    79       69           0
    79       82           3
    79       87           1
    79       94           0
    79       97           2
    79      100           3
    80        5           3
    80        6           4
    80       23           3
    80       28           3
    80       57           3
    80       66           4
    80       70           3
    80       95           4
    80      100           0
    81        4           4
    81       28           4
    81       30           4
    81       48           0
    81       55           1
    81       76           1
    81       77           3
    81       85           4
    82        5           0
    82       13           3
    82       19           4
    82       30           4
    82       38           2
    82       50           3
    82       51           1
    82       67           0
    82       76           2
    82       88           1
    82       90           0
    82       91           1
    82       94           3
    82       97           0
    83        3           1
    83        4           3
    83        8           3
    83       10           3
    83       21           2
    83       34           2
    83       39           0
    83       56           3
    83       60           3
    83       69           4
    83       77           1
    84        4           0
    84        7           3
    84       12           0
    84       24           0
    84       34           0
    84       43           0
    84       44           0
    84       46           2
    84       72           3
    84       78           4
    84       93           1
    85        2           0
    85        5           0
    85        7           3
    85       30           1
    85       32           0
    85       72           0
    85       92           4
    86        7           3
    86       18           0
    86       27           4
    86       43           3
    86       60           2
    86       67           1
    86       76           3
    87        9           4
    87       20           1
    87       44           0
    87       51           2
    87       53           2
    87       55           1
    87       57           3
    87       64           4
    87       75           0
    87       91           4
    87       96           2
    87       97           3
    88        4           4
    88       28           1
    88       58           1
    88       69           4
    88       71           4
    89       15           1
    89       22           1
    89       44           3
    89       49           1
    89       51           4
    89       54           2
    89       64           2
    89       70           1
    89       74           0
    89       97           0
    90        8           2
    90       34           1
    90       36           4
    90       39           0
    90       40           4
    90       59           3
    90       63           4
    90       68           2
    90       87           2
    91        2           4
    91        6           0
    91        8           1
    91       17           1
    91       19           0
    91       23           0
    91       44           4
    91       54           1
    91       66           0
    91       73           4
    91       76           0
    91       93           3
    92        1           4
    92        3           3
    92       28           3
    92       29           0
    92       42           4
    92       70           1
    92       74           0
    92       76           3
    92       79           4
    92       90           1
    93       20           1
    93       29           0
    93       44           3
    93       49           4
    93       58           1
    93       61           0
    93       68           0
    93       70           2
    93       89           3
    93       92           3
    93       98           4
    93      100           3
    94       16           2
    94       18           3
    94       27           3
    94       34           0
    94       62           0
    94       63           1
    94       65           3
    94       68           0
    94       74           3
    94       79           0
    94       88           2
    95        3           1
    95        7           3
    95       37           1
    95       45           1
    95       77           2
    95       81           1
    95       83           1
    95       91           4
    95       97           0
    96        3           3
    96       14           4
    96       26           1
    96       55           2
    96       69           1
    97        9           3
    97       35           2
    97       38           4
    97       53           1
    97       54           3
    97       55           2
    97       65           3
    97       83           3
    98       12           0
    98       43           4
    98       47           3
    98       54           2
    98       56           3
    98       60           2
    98       62           1
    98       70           3
    98       81           3
    98       87           2
    98       88           3
    99        2           4
    99       14           0
    99       19           0
    99       32           2
    99       58           2
    99       64           2
    99       68           3
    99       93           4
    99       96           1
   100       15           4
   100       33           1
   100       36           0
   100       48           4
   100       60           4
   100       83           2
   100       86           4
